Results/Experiment 1 Results/Existing Benchmark/RES_100/i-100-100-3.txt
solutions: 0 nodes: 2  modelTime: 144  solveTime: 21  totalTime: 184  modelSize: 8381  readTime: 19 matchingSize: 0
