Results/Experiment 2 Results/Existing Benchmark/i-100-100-3.lp
clingo version 5.4.0
Reading from tempSRTISolver.lp ...
Solving...
UNSATISFIABLE

Models       : 0
Calls        : 1
Time         : 94.211s (Solving: 15.49s 1st Model: 0.00s Unsat: 15.49s)
CPU Time     : 94.204s
